sat
(model
  (define-fun |sum$unknown:5|
    ( (v_0 Int) (v_1 Int) ) Bool
    (>= (+ v_0 (* (- 1) v_1)) 0)
  )
  (define-fun |add$unknown:3|
    ( (v_0 Int) (v_1 Int) (v_2 Int) ) Bool
    (= (+ v_0 (* (- 1) v_1) (* (- 1) v_2)) 0)
  )
)
